NAME: tsp20-43
TYPE: TSP
DIMENSION: 20
EDGE_WEIGHT_TYPE: EUC_2D
NODE_COORD_SECTION
0 19 48
1 21 44
2 30 64
3 39 90
4 44 37
5 89 62
6 10 95
7 95 13
8 28 84
9 39 16
10 63 69
11 38 9
12 5 18
13 29 4
14 13 26
15 64 44
16 47 92
17 16 5
18 100 39
19 89 82
EOF